(declare-const |K:40| Int)
(declare-const |i':33| Int)
(declare-const |j':34| Int)
(declare-const param0 Int)
(assert (and (or (not (and (<= (- |K:40|) 0) (<= |K:40| 0)))
                   (= (+ |j':34| (* -2 |K:40|)) 0))
               (or (not (<= (+ (- |K:40|) 1) 0))
                     (= (+ |j':34| (* -2 |K:40|)) 0))
               (or (not (and (<= (- |K:40|) 0) (<= |K:40| 0)))
                     (= (+ |i':33| (- |K:40|)) 0))
               (or (not (<= (+ (- |K:40|) 1) 0)) (= (+ |i':33| (- |K:40|)) 0))
               (or (and (= |K:40| 0) (= (- |j':34|) 0) (= (- |i':33|) 0))
                     (and (<= (+ (- |K:40|) 1) 0) (<= (+ (- param0) 1) 0)
                            (= (+ (* 2 |i':33|) (- |j':34|)) 0)
                            (<= (+ (* -2 param0) |j':34|) 0)
                            (<= (+ (- |j':34|) 2) 0))) (<= (- |K:40|) 0)
               (<= (- |j':34|) 0) (<= (- |i':33|) 0)
               (= (+ (* -2 |i':33|) |j':34|) 0) (<= (+ param0 (- |i':33|)) 0)
               (not (or (< (+ |j':34| -1000) 0) (< (+ (- |j':34|) 1000) 0)))))
(check-sat)
